data/medium_4.dzn
num_nodi = 6;
ufficio_postale = 4;
dim_borsa = 36;
max_step = 15;
elenco_lettere = [2, 18, 14, 0, 0, 0];
distanze = [|0, 9, 25, 24, 5, 6
|4, 0, 15, 23, 24, 19
|2, 17, 0, 21, 17, 8
|16, 17, 8, 0, 13, 20
|25, 19, 5, 23, 0, 22
|8, 14, 6, 8, 24, 0
|];
