data/medium_4.lp
node(1..6).

ufficio_postale(4).

dim_borsa(36).

time(1..15).

lettere(1,2).
lettere(2,18).
lettere(3,14).
lettere(4,0).
lettere(5,0).
lettere(6,0).

costo_arco(1, 1, 0).
costo_arco(1, 2, 9).
costo_arco(1, 3, 25).
costo_arco(1, 4, 24).
costo_arco(1, 5, 5).
costo_arco(1, 6, 6).

costo_arco(2, 1, 4).
costo_arco(2, 2, 0).
costo_arco(2, 3, 15).
costo_arco(2, 4, 23).
costo_arco(2, 5, 24).
costo_arco(2, 6, 19).

costo_arco(3, 1, 2).
costo_arco(3, 2, 17).
costo_arco(3, 3, 0).
costo_arco(3, 4, 21).
costo_arco(3, 5, 17).
costo_arco(3, 6, 8).

costo_arco(4, 1, 16).
costo_arco(4, 2, 17).
costo_arco(4, 3, 8).
costo_arco(4, 4, 0).
costo_arco(4, 5, 13).
costo_arco(4, 6, 20).

costo_arco(5, 1, 25).
costo_arco(5, 2, 19).
costo_arco(5, 3, 5).
costo_arco(5, 4, 23).
costo_arco(5, 5, 0).
costo_arco(5, 6, 22).

costo_arco(6, 1, 8).
costo_arco(6, 2, 14).
costo_arco(6, 3, 6).
costo_arco(6, 4, 8).
costo_arco(6, 5, 24).
costo_arco(6, 6, 0).

